networks/zoo_118_1370/zoo_118_1370.txt
Number of groups: 72
Flow 9: {45 11} {11 12} {12 71} 
Flow 14: {33 17} {17 76} 
Flow 24: {1 34} {34 33} {33 92} 
Flow 29: {38 97} 
Flow 38: {36 39} {39 53} {53 112} 
Flow 51: {2 5} {5 11} {11 43} {43 102} 
Flow 78: {3 34} {34 15} {15 54} {54 58} 
Flow 82: {4 36} {36 16} {16 75} 
Flow 107: {21 80} 
Flow 134: {6 54} {54 5} {5 2} {2 61} 
Flow 191: {7 54} {54 43} 
Flow 196: {8 5} {5 54} {54 15} 
Flow 222: {9 23} {23 82} 
Flow 239: {10 57} {57 36} 
Flow 251: {22 23} {23 9} {9 68} 
Flow 295: {12 11} {11 54} {54 36} {36 55} 
Flow 296: {13 21} {21 22} {22 11} {11 70} 
Flow 306: {14 29} {29 15} 
Flow 338: {36 25} {25 84} 
Flow 365: {34 16} {16 52} {52 111} 
Flow 375: {16 36} {36 4} {4 63} 
Flow 413: {17 33} {33 34} {34 3} {3 62} 
Flow 437: {55 36} {36 26} {26 85} 
Flow 442: {18 33} {33 35} {35 94} 
Flow 454: {57 116} 
Flow 467: {19 22} {22 21} {21 13} {13 72} 
Flow 479: {15 27} {27 86} 
Flow 496: {19 48} {48 47} {47 106} 
Flow 505: {20 22} 
Flow 537: {11 44} {44 7} {7 66} 
Flow 561: {39 98} 
Flow 594: {23 22} {22 19} {19 40} {40 99} 
Flow 606: {25 36} {36 34} {34 1} {1 60} 
Flow 646: {26 36} {36 37} 
Flow 672: {27 15} {15 48} {48 107} 
Flow 683: {28 54} {54 19} {19 42} {42 101} 
Flow 697: {30 29} {29 88} 
Flow 741: {32 31} {31 33} 
Flow 777: {33 18} {18 55} {55 37} {37 96} 
Flow 816: {22 24} {24 83} 
Flow 822: {15 29} {29 30} {30 89} 
Flow 832: {48 41} {41 100} 
Flow 840: {48 49} {49 108} 
Flow 847: {15 56} {56 115} 
Flow 863: {31 32} {32 91} 
Flow 868: {35 33} {33 15} {15 45} {45 104} 
Flow 873: {35 36} {36 38} {38 58} {58 117} 
Flow 923: {37 55} {55 18} {18 77} 
Flow 942: {37 36} {36 50} {50 109} 
Flow 979: {39 58} {58 29} {29 14} {14 73} 
Flow 1014: {40 19} 
Flow 1017: {41 48} {48 19} {19 78} 
Flow 1028: {42 19} {19 54} {54 113} 
Flow 1032: {43 54} {54 6} {6 65} 
Flow 1037: {43 11} {11 22} {22 81} 
Flow 1048: {44 11} {11 5} {5 64} 
Flow 1092: {46 48} {48 15} {15 74} 
Flow 1099: {47 48} 
Flow 1132: {49 48} 
Flow 1146: {50 36} {36 54} 
Flow 1160: {51 34} {34 36} {36 57} {57 10} {10 69} 
Flow 1208: {52 16} {16 34} {34 51} {51 110} 
Flow 1212: {53 39} {39 36} {36 95} 
Flow 1231: {22 20} {20 79} 
Flow 1238: {54 28} {28 87} 
Flow 1254: {48 46} {46 105} 
Flow 1263: {54 11} {11 45} {45 59} {59 118} 
Flow 1269: {55 34} {34 93} 
Flow 1284: {56 15} {15 33} {33 31} {31 90} 
Flow 1349: {58 38} {38 36} {36 35} 
Flow 1355: {58 54} {54 7} {7 44} {44 103} 
Flow 1370: {59 45} {45 15} {15 34} {34 55} {55 114} 
Time taken running everything: 58 seconds
